(set-logic QF_SLIA)
(declare-fun var0 () String)
(assert (not (str.in_re var0 (re.++ ((_ re.loop 18 638) (re.++ (re.union (str.to_re "Ug") (re.union (str.to_re "X*") (re.union (str.to_re "cN]") (str.to_re "W$")))) (re.++ (re.union (str.to_re "F") (re.union (str.to_re "%") (re.union (str.to_re "J") (str.to_re "4!/")))) (re.++ (re.union (str.to_re "Cv") (re.union (str.to_re "|") (re.union (str.to_re "d") (str.to_re "'")))) (re.union (str.to_re "GA") (re.union (str.to_re "11") (re.union (str.to_re "9St") (str.to_re "9")))))))) (re.++ ((_ re.loop 19 81) (re.++ (re.union (str.to_re ";") (re.union (str.to_re "5k)") (re.union (str.to_re "Y$") (str.to_re "&")))) (re.++ (re.union (str.to_re "`") (re.union (str.to_re "#+") (re.union (str.to_re "vS") (str.to_re "3")))) (re.++ (re.union (str.to_re "xa") (re.union (str.to_re "qD") (re.union (str.to_re "(D") (str.to_re "L")))) (re.union (str.to_re ",M") (re.union (str.to_re "e97") (re.union (str.to_re "q-") (str.to_re "38W")))))))) (re.++ ((_ re.loop 5 730) (re.++ (re.union (str.to_re "m") (re.union (str.to_re ">!P") (re.union (str.to_re "dt") (str.to_re "C")))) (re.++ (re.union (str.to_re "H") (re.union (str.to_re "0") (re.union (str.to_re "*OK") (str.to_re "H")))) (re.++ (re.union (str.to_re "P}") (re.union (str.to_re "4F2") (re.union (str.to_re "d<") (str.to_re "d")))) (re.union (str.to_re "o") (re.union (str.to_re "@N") (re.union (str.to_re "z5") (str.to_re ".NG")))))))) ((_ re.loop 11 934) (re.++ (re.union (str.to_re "Zn?") (re.union (str.to_re "HW") (re.union (str.to_re "8b") (str.to_re "-Y")))) (re.++ (re.union (str.to_re "r?B") (re.union (str.to_re "$") (re.union (str.to_re "e1") (str.to_re "g+Z")))) (re.++ (re.union (str.to_re "a") (re.union (str.to_re "g") (re.union (str.to_re "0") (str.to_re "C")))) (re.union (str.to_re "88^") (re.union (str.to_re "MK") (re.union (str.to_re "\u0022") (str.to_re "3"))))))))))))))
(assert (not (str.in_re var0 (re.++ ((_ re.loop 10 377) (re.++ (re.union (str.to_re "l") (re.union (str.to_re "]Z") (re.union (str.to_re "d") (str.to_re "-X")))) (re.++ (re.union (str.to_re "iGe") (re.union (str.to_re "l") (re.union (str.to_re "t") (str.to_re "?[")))) (re.++ (re.union (str.to_re "jQ") (re.union (str.to_re "U") (re.union (str.to_re "-") (str.to_re "%TR")))) (re.union (str.to_re "6s") (re.union (str.to_re "@F") (re.union (str.to_re "nm") (str.to_re "y")))))))) (re.++ ((_ re.loop 14 814) (re.++ (re.union (str.to_re "x") (re.union (str.to_re "e{") (re.union (str.to_re "7") (str.to_re "E`")))) (re.++ (re.union (str.to_re "cj_") (re.union (str.to_re "\\|") (re.union (str.to_re "]YA") (str.to_re "J")))) (re.++ (re.union (str.to_re "2") (re.union (str.to_re "Ni") (re.union (str.to_re "T") (str.to_re "&GW")))) (re.union (str.to_re "L") (re.union (str.to_re "bZ") (re.union (str.to_re "R") (str.to_re "`")))))))) (re.++ ((_ re.loop 17 632) (re.++ (re.union (str.to_re "^t") (re.union (str.to_re "{") (re.union (str.to_re "uu") (str.to_re "oLv")))) (re.++ (re.union (str.to_re "aW") (re.union (str.to_re "\\") (re.union (str.to_re "W9o") (str.to_re "h$L")))) (re.++ (re.union (str.to_re "mEH") (re.union (str.to_re "H") (re.union (str.to_re "7%") (str.to_re "o")))) (re.union (str.to_re "ed") (re.union (str.to_re "rZ") (re.union (str.to_re "Yka") (str.to_re "Tx`")))))))) ((_ re.loop 5 853) (re.++ (re.union (str.to_re "{b'") (re.union (str.to_re "a") (re.union (str.to_re ")fg") (str.to_re "Jb")))) (re.++ (re.union (str.to_re "xz") (re.union (str.to_re "ZrG") (re.union (str.to_re "xA") (str.to_re "/ii")))) (re.++ (re.union (str.to_re "qPu") (re.union (str.to_re "l") (re.union (str.to_re "o") (str.to_re "H")))) (re.union (str.to_re ",D") (re.union (str.to_re "#") (re.union (str.to_re "=") (str.to_re "l"))))))))))))))
(assert (not (str.in_re var0 (re.++ (re.* re.allchar) (re.++ (re.union (str.to_re "<") (re.union (str.to_re ">") (re.union (str.to_re "'") (re.union (str.to_re "\u0022") (str.to_re "&"))))) (re.* re.allchar))))))
(assert (<= 50 (str.len var0)))
(check-sat)
(get-model)
